(declare-fun var0 () String)
(assert (str.in.re var0 (re.union (re.union (str.to.re "0") (str.to.re "111")) (re.+ (str.to.re "22")))))
(assert (not (str.in.re var0 (re.union (re.+ (str.to.re "0")) (re.* (str.to.re "1"))))))
(check-sat)